p cnf 967 2484
51 -700 -701 0
-51 700 0
-51 701 0
52 -51 -702 0
-52 51 0
-52 702 0
53 -703 -4 0
-53 703 0
-53 4 0
54 -53 -704 0
-54 53 0
-54 704 0
55 -705 -706 0
-55 705 0
-55 706 0
56 -707 -708 0
-56 707 0
-56 708 0
57 -56 -709 0
-57 56 0
-57 709 0
58 -710 -55 0
-58 710 0
-58 55 0
59 -708 -4 0
-59 708 0
-59 4 0
60 -59 -711 0
-60 59 0
-60 711 0
61 -712 -58 0
-61 712 0
-61 58 0
62 -11 -4 0
-62 11 0
-62 4 0
63 -62 -10 0
-63 62 0
-63 10 0
64 -713 -61 0
-64 713 0
-64 61 0
65 -714 -12 0
-65 714 0
-65 12 0
66 -65 -715 0
-66 65 0
-66 715 0
67 -716 -64 0
-67 716 0
-67 64 0
68 -717 -714 0
-68 717 0
-68 714 0
69 -68 -16 0
-69 68 0
-69 16 0
70 -718 -67 0
-70 718 0
-70 67 0
71 -18 -17 0
-71 18 0
-71 17 0
72 -71 -10 0
-72 71 0
-72 10 0
73 -719 -70 0
-73 719 0
-73 70 0
74 -720 -3 0
-74 720 0
-74 3 0
75 -74 -20 0
-75 74 0
-75 20 0
76 -721 -73 0
-76 721 0
-76 73 0
77 -21 -8 0
-77 21 0
-77 8 0
78 -77 -22 0
-78 77 0
-78 22 0
79 -722 -76 0
-79 722 0
-79 76 0
80 -15 -1 0
-80 15 0
-80 1 0
81 -80 -18 0
-81 80 0
-81 18 0
82 -723 -79 0
-82 723 0
-82 79 0
83 -724 -725 0
-83 724 0
-83 725 0
84 -83 -726 0
-84 83 0
-84 726 0
85 -727 -82 0
-85 727 0
-85 82 0
86 -728 -717 0
-86 728 0
-86 717 0
87 -86 -25 0
-87 86 0
-87 25 0
88 -729 -85 0
-88 729 0
-88 85 0
89 -730 -8 0
-89 730 0
-89 8 0
90 -89 -28 0
-90 89 0
-90 28 0
91 -731 -88 0
-91 731 0
-91 88 0
92 -732 -16 0
-92 732 0
-92 16 0
93 -92 -25 0
-93 92 0
-93 25 0
94 -733 -91 0
-94 733 0
-94 91 0
95 -29 -8 0
-95 29 0
-95 8 0
96 -95 -734 0
-96 95 0
-96 734 0
97 -735 -94 0
-97 735 0
-97 94 0
98 -32 -736 0
-98 32 0
-98 736 0
99 -98 -6 0
-99 98 0
-99 6 0
100 -737 -97 0
-100 737 0
-100 97 0
101 -738 -739 0
-101 738 0
-101 739 0
102 -101 -35 0
-102 101 0
-102 35 0
103 -740 -100 0
-103 740 0
-103 100 0
104 -7 -6 0
-104 7 0
-104 6 0
105 -104 -36 0
-105 104 0
-105 36 0
106 -741 -103 0
-106 741 0
-106 103 0
107 -37 -736 0
-107 37 0
-107 736 0
108 -107 -726 0
-108 107 0
-108 726 0
109 -742 -106 0
-109 742 0
-109 106 0
110 -743 -30 0
-110 743 0
-110 30 0
111 -110 -744 0
-111 110 0
-111 744 0
112 -745 -109 0
-112 745 0
-112 109 0
113 -26 -1 0
-113 26 0
-113 1 0
114 -113 -746 0
-114 113 0
-114 746 0
115 -747 -112 0
-115 747 0
-115 112 0
116 -40 -736 0
-116 40 0
-116 736 0
117 -116 -41 0
-117 116 0
-117 41 0
118 -748 -115 0
-118 748 0
-118 115 0
119 -31 -24 0
-119 31 0
-119 24 0
120 -119 -42 0
-120 119 0
-120 42 0
121 -749 -118 0
-121 749 0
-121 118 0
122 -43 -708 0
-122 43 0
-122 708 0
123 -122 -23 0
-123 122 0
-123 23 0
124 -750 -121 0
-124 750 0
-124 121 0
125 -44 -11 0
-125 44 0
-125 11 0
126 -125 -45 0
-126 125 0
-126 45 0
127 -751 -124 0
-127 751 0
-127 124 0
128 -23 -19 0
-128 23 0
-128 19 0
129 -128 -21 0
-129 128 0
-129 21 0
130 -752 -127 0
-130 752 0
-130 127 0
131 -32 -15 0
-131 32 0
-131 15 0
132 -131 -25 0
-132 131 0
-132 25 0
133 -753 -130 0
-133 753 0
-133 130 0
134 -45 -36 0
-134 45 0
-134 36 0
135 -134 -22 0
-135 134 0
-135 22 0
136 -754 -133 0
-136 754 0
-136 133 0
137 -720 -13 0
-137 720 0
-137 13 0
138 -137 -39 0
-138 137 0
-138 39 0
139 -755 -136 0
-139 755 0
-139 136 0
140 -44 -709 0
-140 44 0
-140 709 0
141 -140 -756 0
-141 140 0
-141 756 0
142 -757 -139 0
-142 757 0
-142 139 0
143 -36 -20 0
-143 36 0
-143 20 0
144 -143 -25 0
-144 143 0
-144 25 0
145 -758 -142 0
-145 758 0
-145 142 0
146 -46 -730 0
-146 46 0
-146 730 0
147 -146 -39 0
-147 146 0
-147 39 0
148 -759 -145 0
-148 759 0
-148 145 0
149 -45 -21 0
-149 45 0
-149 21 0
150 -149 -22 0
-150 149 0
-150 22 0
151 -760 -148 0
-151 760 0
-151 148 0
152 -7 -1 0
-152 7 0
-152 1 0
153 -152 -761 0
-153 152 0
-153 761 0
154 -762 -151 0
-154 762 0
-154 151 0
155 -40 -763 0
-155 40 0
-155 763 0
156 -155 -764 0
-156 155 0
-156 764 0
157 -765 -154 0
-157 765 0
-157 154 0
158 -766 -767 0
-158 766 0
-158 767 0
159 -158 -36 0
-159 158 0
-159 36 0
160 -768 -157 0
-160 768 0
-160 157 0
161 -769 -3 0
-161 769 0
-161 3 0
162 -161 -770 0
-162 161 0
-162 770 0
163 -771 -160 0
-163 771 0
-163 160 0
164 -772 -27 0
-164 772 0
-164 27 0
165 -164 -701 0
-165 164 0
-165 701 0
166 -773 -163 0
-166 773 0
-166 163 0
167 -26 -12 0
-167 26 0
-167 12 0
168 -167 -774 0
-168 167 0
-168 774 0
169 -775 -166 0
-169 775 0
-169 166 0
170 -738 -32 0
-170 738 0
-170 32 0
171 -170 -774 0
-171 170 0
-171 774 0
172 -776 -169 0
-172 776 0
-172 169 0
173 -725 -13 0
-173 725 0
-173 13 0
174 -173 -777 0
-174 173 0
-174 777 0
175 -778 -172 0
-175 778 0
-175 172 0
176 -29 -779 0
-176 29 0
-176 779 0
177 -176 -42 0
-177 176 0
-177 42 0
178 -780 -175 0
-178 780 0
-178 175 0
179 -781 -30 0
-179 781 0
-179 30 0
180 -179 -711 0
-180 179 0
-180 711 0
181 -782 -178 0
-181 782 0
-181 178 0
182 -783 -707 0
-182 783 0
-182 707 0
183 -182 -47 0
-183 182 0
-183 47 0
184 -784 -181 0
-184 784 0
-184 181 0
185 -772 -13 0
-185 772 0
-185 13 0
186 -185 -783 0
-186 185 0
-186 783 0
187 -785 -184 0
-187 785 0
-187 184 0
188 -767 -703 0
-188 767 0
-188 703 0
189 -188 -715 0
-189 188 0
-189 715 0
190 -786 -187 0
-190 786 0
-190 187 0
191 -45 -33 0
-191 45 0
-191 33 0
192 -191 -711 0
-192 191 0
-192 711 0
193 -787 -190 0
-193 787 0
-193 190 0
194 -23 -714 0
-194 23 0
-194 714 0
195 -194 -756 0
-195 194 0
-195 756 0
196 -788 -193 0
-196 788 0
-196 193 0
197 -27 -7 0
-197 27 0
-197 7 0
198 -197 -714 0
-198 197 0
-198 714 0
199 -789 -196 0
-199 789 0
-199 196 0
200 -11 -2 0
-200 11 0
-200 2 0
201 -200 -32 0
-201 200 0
-201 32 0
202 -790 -199 0
-202 790 0
-202 199 0
203 -43 -5 0
-203 43 0
-203 5 0
204 -203 -37 0
-204 203 0
-204 37 0
205 -791 -202 0
-205 791 0
-205 202 0
206 -792 -701 0
-206 792 0
-206 701 0
207 -206 -22 0
-207 206 0
-207 22 0
208 -793 -205 0
-208 793 0
-208 205 0
209 -746 -18 0
-209 746 0
-209 18 0
210 -209 -25 0
-210 209 0
-210 25 0
211 -794 -208 0
-211 794 0
-211 208 0
212 -33 -27 0
-212 33 0
-212 27 0
213 -212 -738 0
-213 212 0
-213 738 0
214 -795 -211 0
-214 795 0
-214 211 0
215 -730 -11 0
-215 730 0
-215 11 0
216 -215 -25 0
-216 215 0
-216 25 0
217 -796 -214 0
-217 796 0
-217 214 0
218 -44 -746 0
-218 44 0
-218 746 0
219 -218 -797 0
-219 218 0
-219 797 0
220 -798 -217 0
-220 798 0
-220 217 0
221 -764 -714 0
-221 764 0
-221 714 0
222 -221 -797 0
-222 221 0
-222 797 0
223 -799 -220 0
-223 799 0
-223 220 0
224 -31 -27 0
-224 31 0
-224 27 0
225 -224 -800 0
-225 224 0
-225 800 0
226 -801 -223 0
-226 801 0
-226 223 0
227 -800 -777 0
-227 800 0
-227 777 0
228 -227 -724 0
-228 227 0
-228 724 0
229 -802 -226 0
-229 802 0
-229 226 0
230 -38 -728 0
-230 38 0
-230 728 0
231 -230 -732 0
-231 230 0
-231 732 0
232 -803 -229 0
-232 803 0
-232 229 0
233 -730 -19 0
-233 730 0
-233 19 0
234 -233 -732 0
-234 233 0
-234 732 0
235 -804 -232 0
-235 804 0
-235 232 0
236 -783 -738 0
-236 783 0
-236 738 0
237 -236 -711 0
-237 236 0
-237 711 0
238 -805 -235 0
-238 805 0
-238 235 0
239 -714 -806 0
-239 714 0
-239 806 0
240 -239 -724 0
-240 239 0
-240 724 0
241 -807 -238 0
-241 807 0
-241 238 0
242 -724 -711 0
-242 724 0
-242 711 0
243 -242 -726 0
-243 242 0
-243 726 0
244 -808 -241 0
-244 808 0
-244 241 0
245 -27 -3 0
-245 27 0
-245 3 0
246 -245 -715 0
-246 245 0
-246 715 0
247 -809 -244 0
-247 809 0
-247 244 0
248 -41 -6 0
-248 41 0
-248 6 0
249 -248 -726 0
-249 248 0
-249 726 0
250 -810 -247 0
-250 810 0
-250 247 0
251 -12 -2 0
-251 12 0
-251 2 0
252 -251 -724 0
-252 251 0
-252 724 0
253 -811 -250 0
-253 811 0
-253 250 0
254 -812 -703 0
-254 812 0
-254 703 0
255 -254 -36 0
-255 254 0
-255 36 0
256 -813 -253 0
-256 813 0
-256 253 0
257 -720 -814 0
-257 720 0
-257 814 0
258 -257 -17 0
-258 257 0
-258 17 0
259 -815 -256 0
-259 815 0
-259 256 0
260 -19 -11 0
-260 19 0
-260 11 0
261 -260 -766 0
-261 260 0
-261 766 0
262 -816 -259 0
-262 816 0
-262 259 0
263 -769 -15 0
-263 769 0
-263 15 0
264 -263 -779 0
-264 263 0
-264 779 0
265 -817 -262 0
-265 817 0
-265 262 0
266 -800 -3 0
-266 800 0
-266 3 0
267 -266 -746 0
-267 266 0
-267 746 0
268 -818 -265 0
-268 818 0
-268 265 0
269 -43 -739 0
-269 43 0
-269 739 0
270 -269 -3 0
-270 269 0
-270 3 0
271 -819 -268 0
-271 819 0
-271 268 0
272 -35 -738 0
-272 35 0
-272 738 0
273 -272 -3 0
-273 272 0
-273 3 0
274 -820 -271 0
-274 820 0
-274 271 0
275 -49 -17 0
-275 49 0
-275 17 0
276 -275 -25 0
-276 275 0
-276 25 0
277 -821 -274 0
-277 821 0
-277 274 0
278 -34 -714 0
-278 34 0
-278 714 0
279 -278 -43 0
-279 278 0
-279 43 0
280 -822 -277 0
-280 822 0
-280 277 0
281 -44 -8 0
-281 44 0
-281 8 0
282 -281 -50 0
-282 281 0
-282 50 0
283 -823 -280 0
-283 823 0
-283 280 0
284 -33 -703 0
-284 33 0
-284 703 0
285 -284 -2 0
-285 284 0
-285 2 0
286 -824 -283 0
-286 824 0
-286 283 0
287 -27 -11 0
-287 27 0
-287 11 0
288 -287 -22 0
-288 287 0
-288 22 0
289 -825 -286 0
-289 825 0
-289 286 0
290 -709 -7 0
-290 709 0
-290 7 0
291 -290 -50 0
-291 290 0
-291 50 0
292 -826 -289 0
-292 826 0
-292 289 0
293 -39 -38 0
-293 39 0
-293 38 0
294 -293 -36 0
-294 293 0
-294 36 0
295 -827 -292 0
-295 827 0
-295 292 0
296 -772 -26 0
-296 772 0
-296 26 0
297 -296 -756 0
-297 296 0
-297 756 0
298 -828 -295 0
-298 828 0
-298 295 0
299 -31 -720 0
-299 31 0
-299 720 0
300 -299 -800 0
-300 299 0
-300 800 0
301 -829 -298 0
-301 829 0
-301 298 0
302 -31 -17 0
-302 31 0
-302 17 0
303 -302 -36 0
-303 302 0
-303 36 0
304 -830 -301 0
-304 830 0
-304 301 0
305 -41 -33 0
-305 41 0
-305 33 0
306 -305 -756 0
-306 305 0
-306 756 0
307 -831 -304 0
-307 831 0
-307 304 0
308 -707 -700 0
-308 707 0
-308 700 0
309 -308 -42 0
-309 308 0
-309 42 0
310 -832 -307 0
-310 832 0
-310 307 0
311 -717 -708 0
-311 717 0
-311 708 0
312 -311 -44 0
-312 311 0
-312 44 0
313 -833 -310 0
-313 833 0
-313 310 0
314 -27 -8 0
-314 27 0
-314 8 0
315 -314 -834 0
-315 314 0
-315 834 0
316 -835 -313 0
-316 835 0
-316 313 0
317 -734 -702 0
-317 734 0
-317 702 0
318 -317 -36 0
-318 317 0
-318 36 0
319 -836 -316 0
-319 836 0
-319 316 0
320 -800 -17 0
-320 800 0
-320 17 0
321 -320 -14 0
-321 320 0
-321 14 0
322 -837 -319 0
-322 837 0
-322 319 0
323 -792 -717 0
-323 792 0
-323 717 0
324 -323 -6 0
-324 323 0
-324 6 0
325 -838 -322 0
-325 838 0
-325 322 0
326 -766 -707 0
-326 766 0
-326 707 0
327 -326 -9 0
-327 326 0
-327 9 0
328 -839 -325 0
-328 839 0
-328 325 0
329 -783 -739 0
-329 783 0
-329 739 0
330 -329 -21 0
-330 329 0
-330 21 0
331 -840 -328 0
-331 840 0
-331 328 0
332 -8 -708 0
-332 8 0
-332 708 0
333 -332 -701 0
-333 332 0
-333 701 0
334 -841 -331 0
-334 841 0
-334 331 0
335 -764 -12 0
-335 764 0
-335 12 0
336 -335 -726 0
-336 335 0
-336 726 0
337 -842 -334 0
-337 842 0
-337 334 0
338 -39 -700 0
-338 39 0
-338 700 0
339 -338 -10 0
-339 338 0
-339 10 0
340 -843 -337 0
-340 843 0
-340 337 0
341 -806 -700 0
-341 806 0
-341 700 0
342 -341 -50 0
-342 341 0
-342 50 0
343 -844 -340 0
-343 844 0
-343 340 0
344 -31 -715 0
-344 31 0
-344 715 0
345 -344 -797 0
-345 344 0
-345 797 0
346 -845 -343 0
-346 845 0
-346 343 0
347 -704 -703 0
-347 704 0
-347 703 0
348 -347 -846 0
-348 347 0
-348 846 0
349 -847 -346 0
-349 847 0
-349 346 0
350 -46 -848 0
-350 46 0
-350 848 0
351 -350 -10 0
-351 350 0
-351 10 0
352 -849 -349 0
-352 849 0
-352 349 0
353 -743 -728 0
-353 743 0
-353 728 0
354 -353 -701 0
-354 353 0
-354 701 0
355 -850 -352 0
-355 850 0
-355 352 0
356 -35 -29 0
-356 35 0
-356 29 0
357 -356 -21 0
-357 356 0
-357 21 0
358 -851 -355 0
-358 851 0
-358 355 0
359 -23 -700 0
-359 23 0
-359 700 0
360 -359 -756 0
-360 359 0
-360 756 0
361 -852 -358 0
-361 852 0
-361 358 0
362 -45 -14 0
-362 45 0
-362 14 0
363 -362 -834 0
-363 362 0
-363 834 0
364 -853 -361 0
-364 853 0
-364 361 0
365 -26 -5 0
-365 26 0
-365 5 0
366 -365 -20 0
-366 365 0
-366 20 0
367 -854 -364 0
-367 854 0
-367 364 0
368 -16 -707 0
-368 16 0
-368 707 0
369 -368 -726 0
-369 368 0
-369 726 0
370 -855 -367 0
-370 855 0
-370 367 0
371 -50 -702 0
-371 50 0
-371 702 0
372 -371 -797 0
-372 371 0
-372 797 0
373 -856 -370 0
-373 856 0
-373 370 0
374 -797 -728 0
-374 797 0
-374 728 0
375 -374 -711 0
-375 374 0
-375 711 0
376 -857 -373 0
-376 857 0
-376 373 0
377 -736 -708 0
-377 736 0
-377 708 0
378 -377 -42 0
-378 377 0
-378 42 0
379 -858 -376 0
-379 858 0
-379 376 0
380 -46 -2 0
-380 46 0
-380 2 0
381 -380 -779 0
-381 380 0
-381 779 0
382 -859 -379 0
-382 859 0
-382 379 0
383 -34 -700 0
-383 34 0
-383 700 0
384 -383 -29 0
-384 383 0
-384 29 0
385 -860 -382 0
-385 860 0
-385 382 0
386 -37 -756 0
-386 37 0
-386 756 0
387 -386 -770 0
-387 386 0
-387 770 0
388 -861 -385 0
-388 861 0
-388 385 0
389 -9 -708 0
-389 9 0
-389 708 0
390 -389 -45 0
-390 389 0
-390 45 0
391 -862 -388 0
-391 862 0
-391 388 0
392 -736 -707 0
-392 736 0
-392 707 0
393 -392 -770 0
-393 392 0
-393 770 0
394 -863 -391 0
-394 863 0
-394 391 0
395 -720 -7 0
-395 720 0
-395 7 0
396 -395 -764 0
-396 395 0
-396 764 0
397 -864 -394 0
-397 864 0
-397 394 0
398 -31 -6 0
-398 31 0
-398 6 0
399 -398 -49 0
-399 398 0
-399 49 0
400 -865 -397 0
-400 865 0
-400 397 0
401 -761 -732 0
-401 761 0
-401 732 0
402 -401 -746 0
-402 401 0
-402 746 0
403 -866 -400 0
-403 866 0
-403 400 0
404 -763 -700 0
-404 763 0
-404 700 0
405 -404 -25 0
-405 404 0
-405 25 0
406 -867 -403 0
-406 867 0
-406 403 0
407 -728 -11 0
-407 728 0
-407 11 0
408 -407 -714 0
-408 407 0
-408 714 0
409 -868 -406 0
-409 868 0
-409 406 0
410 -47 -766 0
-410 47 0
-410 766 0
411 -410 -704 0
-411 410 0
-411 704 0
412 -869 -409 0
-412 869 0
-412 409 0
413 -806 -709 0
-413 806 0
-413 709 0
414 -413 -22 0
-414 413 0
-414 22 0
415 -870 -412 0
-415 870 0
-415 412 0
416 -739 -703 0
-416 739 0
-416 703 0
417 -416 -39 0
-417 416 0
-417 39 0
418 -871 -415 0
-418 871 0
-418 415 0
419 -29 -700 0
-419 29 0
-419 700 0
420 -419 -42 0
-420 419 0
-420 42 0
421 -872 -418 0
-421 872 0
-421 418 0
422 -38 -736 0
-422 38 0
-422 736 0
423 -422 -23 0
-423 422 0
-423 23 0
424 -873 -421 0
-424 873 0
-424 421 0
425 -792 -700 0
-425 792 0
-425 700 0
426 -425 -49 0
-426 425 0
-426 49 0
427 -874 -424 0
-427 874 0
-427 424 0
428 -20 -715 0
-428 20 0
-428 715 0
429 -428 -846 0
-429 428 0
-429 846 0
430 -875 -427 0
-430 875 0
-430 427 0
431 -40 -34 0
-431 40 0
-431 34 0
432 -431 -43 0
-432 431 0
-432 43 0
433 -876 -430 0
-433 876 0
-433 430 0
434 -806 -2 0
-434 806 0
-434 2 0
435 -434 -49 0
-435 434 0
-435 49 0
436 -877 -433 0
-436 877 0
-436 433 0
437 -48 -6 0
-437 48 0
-437 6 0
438 -437 -49 0
-438 437 0
-438 49 0
439 -878 -436 0
-439 878 0
-439 436 0
440 -739 -19 0
-440 739 0
-440 19 0
441 -440 -769 0
-441 440 0
-441 769 0
442 -879 -439 0
-442 879 0
-442 439 0
443 -738 -734 0
-443 738 0
-443 734 0
444 -443 -724 0
-444 443 0
-444 724 0
445 -880 -442 0
-445 880 0
-445 442 0
446 -714 -763 0
-446 714 0
-446 763 0
447 -446 -774 0
-447 446 0
-447 774 0
448 -881 -445 0
-448 881 0
-448 445 0
449 -17 -5 0
-449 17 0
-449 5 0
450 -449 -800 0
-450 449 0
-450 800 0
451 -882 -448 0
-451 882 0
-451 448 0
452 -848 -702 0
-452 848 0
-452 702 0
453 -452 -834 0
-453 452 0
-453 834 0
454 -883 -451 0
-454 883 0
-454 451 0
455 -43 -728 0
-455 43 0
-455 728 0
456 -455 -37 0
-456 455 0
-456 37 0
457 -884 -454 0
-457 884 0
-457 454 0
458 -720 -703 0
-458 720 0
-458 703 0
459 -458 -44 0
-459 458 0
-459 44 0
460 -885 -457 0
-460 885 0
-460 457 0
461 -50 -43 0
-461 50 0
-461 43 0
462 -461 -29 0
-462 461 0
-462 29 0
463 -886 -460 0
-463 886 0
-463 460 0
464 -797 -36 0
-464 797 0
-464 36 0
465 -464 -42 0
-465 464 0
-465 42 0
466 -887 -463 0
-466 887 0
-466 463 0
467 -47 -739 0
-467 47 0
-467 739 0
468 -467 -50 0
-468 467 0
-468 50 0
469 -888 -466 0
-469 888 0
-469 466 0
470 -769 -703 0
-470 769 0
-470 703 0
471 -470 -22 0
-471 470 0
-471 22 0
472 -889 -469 0
-472 889 0
-472 469 0
473 -743 -26 0
-473 743 0
-473 26 0
474 -473 -21 0
-474 473 0
-474 21 0
475 -890 -472 0
-475 890 0
-475 472 0
476 -720 -717 0
-476 720 0
-476 717 0
477 -476 -761 0
-477 476 0
-477 761 0
478 -891 -475 0
-478 891 0
-478 475 0
479 -5 -700 0
-479 5 0
-479 700 0
480 -479 -724 0
-480 479 0
-480 724 0
481 -892 -478 0
-481 892 0
-481 478 0
482 -19 -4 0
-482 19 0
-482 4 0
483 -482 -766 0
-483 482 0
-483 766 0
484 -893 -481 0
-484 893 0
-484 481 0
485 -703 -700 0
-485 703 0
-485 700 0
486 -485 -29 0
-486 485 0
-486 29 0
487 -894 -484 0
-487 894 0
-487 484 0
488 -46 -33 0
-488 46 0
-488 33 0
489 -488 -700 0
-489 488 0
-489 700 0
490 -895 -487 0
-490 895 0
-490 487 0
491 -703 -814 0
-491 703 0
-491 814 0
492 -491 -806 0
-492 491 0
-492 806 0
493 -896 -490 0
-493 896 0
-493 490 0
494 -766 -814 0
-494 766 0
-494 814 0
495 -494 -769 0
-495 494 0
-495 769 0
496 -897 -493 0
-496 897 0
-496 493 0
497 -772 -709 0
-497 772 0
-497 709 0
498 -497 -764 0
-498 497 0
-498 764 0
499 -898 -496 0
-499 898 0
-499 496 0
500 -41 -30 0
-500 41 0
-500 30 0
501 -500 -711 0
-501 500 0
-501 711 0
502 -899 -499 0
-502 899 0
-502 499 0
503 -49 -744 0
-503 49 0
-503 744 0
504 -503 -724 0
-504 503 0
-504 724 0
505 -900 -502 0
-505 900 0
-505 502 0
506 -47 -28 0
-506 47 0
-506 28 0
507 -506 -32 0
-507 506 0
-507 32 0
508 -901 -505 0
-508 901 0
-508 505 0
509 -27 -707 0
-509 27 0
-509 707 0
510 -509 -744 0
-510 509 0
-510 744 0
511 -902 -508 0
-511 902 0
-511 508 0
512 -38 -7 0
-512 38 0
-512 7 0
513 -512 -21 0
-513 512 0
-513 21 0
514 -903 -511 0
-514 903 0
-514 511 0
515 -425 -769 0
-515 425 0
-515 769 0
516 -904 -514 0
-516 904 0
-516 514 0
517 -772 -738 0
-517 772 0
-517 738 0
518 -517 -834 0
-518 517 0
-518 834 0
519 -905 -516 0
-519 905 0
-519 516 0
520 -797 -779 0
-520 797 0
-520 779 0
521 -520 -42 0
-521 520 0
-521 42 0
522 -906 -519 0
-522 906 0
-522 519 0
523 -47 -720 0
-523 47 0
-523 720 0
524 -523 -42 0
-524 523 0
-524 42 0
525 -907 -522 0
-525 907 0
-525 522 0
526 -31 -806 0
-526 31 0
-526 806 0
527 -526 -769 0
-527 526 0
-527 769 0
528 -908 -525 0
-528 908 0
-528 525 0
529 -800 -720 0
-529 800 0
-529 720 0
530 -529 -770 0
-530 529 0
-530 770 0
531 -909 -528 0
-531 909 0
-531 528 0
532 -27 -714 0
-532 27 0
-532 714 0
533 -532 -21 0
-533 532 0
-533 21 0
534 -910 -531 0
-534 910 0
-534 531 0
535 -27 -806 0
-535 27 0
-535 806 0
536 -535 -800 0
-536 535 0
-536 800 0
537 -911 -534 0
-537 911 0
-537 534 0
538 -17 -700 0
-538 17 0
-538 700 0
539 -538 -39 0
-539 538 0
-539 39 0
540 -912 -537 0
-540 912 0
-540 537 0
541 -772 -702 0
-541 772 0
-541 702 0
542 -541 -48 0
-542 541 0
-542 48 0
543 -913 -540 0
-543 913 0
-543 540 0
544 -47 -32 0
-544 47 0
-544 32 0
545 -544 -834 0
-545 544 0
-545 834 0
546 -914 -543 0
-546 914 0
-546 543 0
547 -26 -720 0
-547 26 0
-547 720 0
548 -547 -834 0
-548 547 0
-548 834 0
549 -915 -546 0
-549 915 0
-549 546 0
550 -743 -779 0
-550 743 0
-550 779 0
551 -550 -744 0
-551 550 0
-551 744 0
552 -916 -549 0
-552 916 0
-552 549 0
553 -33 -708 0
-553 33 0
-553 708 0
554 -553 -744 0
-554 553 0
-554 744 0
555 -917 -552 0
-555 917 0
-555 552 0
556 -46 -772 0
-556 46 0
-556 772 0
557 -556 -24 0
-557 556 0
-557 24 0
558 -918 -555 0
-558 918 0
-558 555 0
559 -27 -919 0
-559 27 0
-559 919 0
560 -559 -734 0
-560 559 0
-560 734 0
561 -920 -558 0
-561 920 0
-561 558 0
562 -717 -703 0
-562 717 0
-562 703 0
563 -562 -45 0
-563 562 0
-563 45 0
564 -921 -561 0
-564 921 0
-564 561 0
565 -736 -27 0
-565 736 0
-565 27 0
566 -565 -24 0
-566 565 0
-566 24 0
567 -922 -564 0
-567 922 0
-567 564 0
568 -763 -814 0
-568 763 0
-568 814 0
569 -568 -32 0
-569 568 0
-569 32 0
570 -923 -567 0
-570 923 0
-570 567 0
571 -730 -702 0
-571 730 0
-571 702 0
572 -571 -29 0
-572 571 0
-572 29 0
573 -924 -570 0
-573 924 0
-573 570 0
574 -26 -9 0
-574 26 0
-574 9 0
575 -574 -45 0
-575 574 0
-575 45 0
576 -925 -573 0
-576 925 0
-576 573 0
577 -743 -708 0
-577 743 0
-577 708 0
578 -577 -764 0
-578 577 0
-578 764 0
579 -926 -576 0
-579 926 0
-579 576 0
580 -26 -814 0
-580 26 0
-580 814 0
581 -580 -38 0
-581 580 0
-581 38 0
582 -927 -579 0
-582 927 0
-582 579 0
583 -744 -5 0
-583 744 0
-583 5 0
584 -583 -36 0
-584 583 0
-584 36 0
585 -928 -582 0
-585 928 0
-585 582 0
586 -792 -720 0
-586 792 0
-586 720 0
587 -586 -38 0
-587 586 0
-587 38 0
588 -929 -585 0
-588 929 0
-588 585 0
589 -761 -709 0
-589 761 0
-589 709 0
590 -589 -25 0
-590 589 0
-590 25 0
591 -930 -588 0
-591 930 0
-591 588 0
592 -724 -763 0
-592 724 0
-592 763 0
593 -592 -726 0
-593 592 0
-593 726 0
594 -931 -591 0
-594 931 0
-594 591 0
595 -101 -18 0
-595 101 0
-595 18 0
596 -932 -594 0
-596 932 0
-596 594 0
597 -32 -11 0
-597 32 0
-597 11 0
598 -597 -48 0
-598 597 0
-598 48 0
599 -933 -596 0
-599 933 0
-599 596 0
600 -792 -31 0
-600 792 0
-600 31 0
601 -600 -763 0
-601 600 0
-601 763 0
602 -934 -599 0
-602 934 0
-602 599 0
603 -50 -761 0
-603 50 0
-603 761 0
604 -603 -770 0
-604 603 0
-604 770 0
605 -935 -602 0
-605 935 0
-605 602 0
606 -739 -15 0
-606 739 0
-606 15 0
607 -606 -783 0
-607 606 0
-607 783 0
608 -936 -605 0
-608 936 0
-608 605 0
609 -792 -9 0
-609 792 0
-609 9 0
610 -609 -23 0
-610 609 0
-610 23 0
611 -937 -608 0
-611 937 0
-611 608 0
612 -730 -746 0
-612 730 0
-612 746 0
613 -612 -21 0
-613 612 0
-613 21 0
614 -938 -611 0
-614 938 0
-614 611 0
615 -732 -707 0
-615 732 0
-615 707 0
616 -615 -779 0
-616 615 0
-616 779 0
617 -939 -614 0
-617 939 0
-617 614 0
618 -708 -2 0
-618 708 0
-618 2 0
619 -618 -36 0
-619 618 0
-619 36 0
620 -940 -617 0
-620 940 0
-620 617 0
621 -770 -26 0
-621 770 0
-621 26 0
622 -621 -777 0
-622 621 0
-622 777 0
623 -941 -620 0
-623 941 0
-623 620 0
624 -20 -704 0
-624 20 0
-624 704 0
625 -624 -48 0
-625 624 0
-625 48 0
626 -942 -623 0
-626 942 0
-626 623 0
627 -15 -700 0
-627 15 0
-627 700 0
628 -627 -30 0
-628 627 0
-628 30 0
629 -943 -626 0
-629 943 0
-629 626 0
630 -21 -12 0
-630 21 0
-630 12 0
631 -630 -834 0
-631 630 0
-631 834 0
632 -944 -629 0
-632 944 0
-632 629 0
633 -46 -704 0
-633 46 0
-633 704 0
634 -633 -724 0
-634 633 0
-634 724 0
635 -945 -632 0
-635 945 0
-635 632 0
636 -31 -26 0
-636 31 0
-636 26 0
637 -636 -707 0
-637 636 0
-637 707 0
638 -946 -635 0
-638 946 0
-638 635 0
639 -769 -33 0
-639 769 0
-639 33 0
640 -639 -846 0
-640 639 0
-640 846 0
641 -947 -638 0
-641 947 0
-641 638 0
642 -568 -24 0
-642 568 0
-642 24 0
643 -948 -641 0
-643 948 0
-643 641 0
644 -31 -703 0
-644 31 0
-644 703 0
645 -644 -30 0
-645 644 0
-645 30 0
646 -949 -643 0
-646 949 0
-646 643 0
647 -766 -18 0
-647 766 0
-647 18 0
648 -647 -37 0
-648 647 0
-648 37 0
649 -950 -646 0
-649 950 0
-649 646 0
650 -772 -700 0
-650 772 0
-650 700 0
651 -650 -10 0
-651 650 0
-651 10 0
652 -951 -649 0
-652 951 0
-652 649 0
653 -40 -848 0
-653 40 0
-653 848 0
654 -653 -726 0
-654 653 0
-654 726 0
655 -952 -652 0
-655 952 0
-655 652 0
656 -783 -806 0
-656 783 0
-656 806 0
657 -656 -21 0
-657 656 0
-657 21 0
658 -953 -655 0
-658 953 0
-658 655 0
659 -40 -11 0
-659 40 0
-659 11 0
660 -659 -777 0
-660 659 0
-660 777 0
661 -954 -658 0
-661 954 0
-661 658 0
662 -50 -783 0
-662 50 0
-662 783 0
663 -662 -848 0
-663 662 0
-663 848 0
664 -955 -661 0
-664 955 0
-664 661 0
665 -800 -743 0
-665 800 0
-665 743 0
666 -665 -848 0
-666 665 0
-666 848 0
667 -956 -664 0
-667 956 0
-667 664 0
668 -577 -734 0
-668 577 0
-668 734 0
669 -957 -667 0
-669 957 0
-669 667 0
670 -21 -701 0
-670 21 0
-670 701 0
671 -670 -724 0
-671 670 0
-671 724 0
672 -958 -669 0
-672 958 0
-672 669 0
673 -761 -781 0
-673 761 0
-673 781 0
674 -673 -20 0
-674 673 0
-674 20 0
675 -959 -672 0
-675 959 0
-675 672 0
676 -11 -709 0
-676 11 0
-676 709 0
677 -676 -846 0
-677 676 0
-677 846 0
678 -960 -675 0
-678 960 0
-678 675 0
679 -28 -12 0
-679 28 0
-679 12 0
680 -679 -18 0
-680 679 0
-680 18 0
681 -961 -678 0
-681 961 0
-681 678 0
682 -728 -714 0
-682 728 0
-682 714 0
683 -682 -42 0
-683 682 0
-683 42 0
684 -962 -681 0
-684 962 0
-684 681 0
685 -732 -8 0
-685 732 0
-685 8 0
686 -685 -797 0
-686 685 0
-686 797 0
687 -963 -684 0
-687 963 0
-687 684 0
688 -30 -814 0
-688 30 0
-688 814 0
689 -688 -770 0
-689 688 0
-689 770 0
690 -964 -687 0
-690 964 0
-690 687 0
691 -739 -730 0
-691 739 0
-691 730 0
692 -691 -30 0
-692 691 0
-692 30 0
693 -965 -690 0
-693 965 0
-693 690 0
694 -738 -7 0
-694 738 0
-694 7 0
695 -694 -38 0
-695 694 0
-695 38 0
696 -966 -693 0
-696 966 0
-696 693 0
697 -38 -707 0
-697 38 0
-697 707 0
698 -697 -724 0
-698 697 0
-698 724 0
699 -967 -696 0
-699 967 0
-699 696 0
-700 -2 0
700 2 0
-701 -1 0
701 1 0
-702 -3 0
702 3 0
-703 -5 0
703 5 0
-704 -6 0
704 6 0
-705 -54 0
705 54 0
-706 -52 0
706 52 0
-707 -8 0
707 8 0
-708 -7 0
708 7 0
-709 -9 0
709 9 0
-710 -57 0
710 57 0
-711 -10 0
711 10 0
-712 -60 0
712 60 0
-713 -63 0
713 63 0
-714 -13 0
714 13 0
-715 -14 0
715 14 0
-716 -66 0
716 66 0
-717 -15 0
717 15 0
-718 -69 0
718 69 0
-719 -72 0
719 72 0
-720 -19 0
720 19 0
-721 -75 0
721 75 0
-722 -78 0
722 78 0
-723 -81 0
723 81 0
-724 -24 0
724 24 0
-725 -23 0
725 23 0
-726 -25 0
726 25 0
-727 -84 0
727 84 0
-728 -26 0
728 26 0
-729 -87 0
729 87 0
-730 -27 0
730 27 0
-731 -90 0
731 90 0
-732 -28 0
732 28 0
-733 -93 0
733 93 0
-734 -30 0
734 30 0
-735 -96 0
735 96 0
-736 -31 0
736 31 0
-737 -99 0
737 99 0
-738 -34 0
738 34 0
-739 -33 0
739 33 0
-740 -102 0
740 102 0
-741 -105 0
741 105 0
-742 -108 0
742 108 0
-743 -38 0
743 38 0
-744 -39 0
744 39 0
-745 -111 0
745 111 0
-746 -20 0
746 20 0
-747 -114 0
747 114 0
-748 -117 0
748 117 0
-749 -120 0
749 120 0
-750 -123 0
750 123 0
-751 -126 0
751 126 0
-752 -129 0
752 129 0
-753 -132 0
753 132 0
-754 -135 0
754 135 0
-755 -138 0
755 138 0
-756 -29 0
756 29 0
-757 -141 0
757 141 0
-758 -144 0
758 144 0
-759 -147 0
759 147 0
-760 -150 0
760 150 0
-761 -47 0
761 47 0
-762 -153 0
762 153 0
-763 -11 0
763 11 0
-764 -48 0
764 48 0
-765 -156 0
765 156 0
-766 -44 0
766 44 0
-767 -18 0
767 18 0
-768 -159 0
768 159 0
-769 -37 0
769 37 0
-770 -45 0
770 45 0
-771 -162 0
771 162 0
-772 -40 0
772 40 0
-773 -165 0
773 165 0
-774 -16 0
774 16 0
-775 -168 0
775 168 0
-776 -171 0
776 171 0
-777 -22 0
777 22 0
-778 -174 0
778 174 0
-779 -21 0
779 21 0
-780 -177 0
780 177 0
-781 -41 0
781 41 0
-782 -180 0
782 180 0
-783 -43 0
783 43 0
-784 -183 0
784 183 0
-785 -186 0
785 186 0
-786 -189 0
786 189 0
-787 -192 0
787 192 0
-788 -195 0
788 195 0
-789 -198 0
789 198 0
-790 -201 0
790 201 0
-791 -204 0
791 204 0
-792 -46 0
792 46 0
-793 -207 0
793 207 0
-794 -210 0
794 210 0
-795 -213 0
795 213 0
-796 -216 0
796 216 0
-797 -49 0
797 49 0
-798 -219 0
798 219 0
-799 -222 0
799 222 0
-800 -50 0
800 50 0
-801 -225 0
801 225 0
-802 -228 0
802 228 0
-803 -231 0
803 231 0
-804 -234 0
804 234 0
-805 -237 0
805 237 0
-806 -12 0
806 12 0
-807 -240 0
807 240 0
-808 -243 0
808 243 0
-809 -246 0
809 246 0
-810 -249 0
810 249 0
-811 -252 0
811 252 0
-812 -35 0
812 35 0
-813 -255 0
813 255 0
-814 -4 0
814 4 0
-815 -258 0
815 258 0
-816 -261 0
816 261 0
-817 -264 0
817 264 0
-818 -267 0
818 267 0
-819 -270 0
819 270 0
-820 -273 0
820 273 0
-821 -276 0
821 276 0
-822 -279 0
822 279 0
-823 -282 0
823 282 0
-824 -285 0
824 285 0
-825 -288 0
825 288 0
-826 -291 0
826 291 0
-827 -294 0
827 294 0
-828 -297 0
828 297 0
-829 -300 0
829 300 0
-830 -303 0
830 303 0
-831 -306 0
831 306 0
-832 -309 0
832 309 0
-833 -312 0
833 312 0
-834 -42 0
834 42 0
-835 -315 0
835 315 0
-836 -318 0
836 318 0
-837 -321 0
837 321 0
-838 -324 0
838 324 0
-839 -327 0
839 327 0
-840 -330 0
840 330 0
-841 -333 0
841 333 0
-842 -336 0
842 336 0
-843 -339 0
843 339 0
-844 -342 0
844 342 0
-845 -345 0
845 345 0
-846 -36 0
846 36 0
-847 -348 0
847 348 0
-848 -32 0
848 32 0
-849 -351 0
849 351 0
-850 -354 0
850 354 0
-851 -357 0
851 357 0
-852 -360 0
852 360 0
-853 -363 0
853 363 0
-854 -366 0
854 366 0
-855 -369 0
855 369 0
-856 -372 0
856 372 0
-857 -375 0
857 375 0
-858 -378 0
858 378 0
-859 -381 0
859 381 0
-860 -384 0
860 384 0
-861 -387 0
861 387 0
-862 -390 0
862 390 0
-863 -393 0
863 393 0
-864 -396 0
864 396 0
-865 -399 0
865 399 0
-866 -402 0
866 402 0
-867 -405 0
867 405 0
-868 -408 0
868 408 0
-869 -411 0
869 411 0
-870 -414 0
870 414 0
-871 -417 0
871 417 0
-872 -420 0
872 420 0
-873 -423 0
873 423 0
-874 -426 0
874 426 0
-875 -429 0
875 429 0
-876 -432 0
876 432 0
-877 -435 0
877 435 0
-878 -438 0
878 438 0
-879 -441 0
879 441 0
-880 -444 0
880 444 0
-881 -447 0
881 447 0
-882 -450 0
882 450 0
-883 -453 0
883 453 0
-884 -456 0
884 456 0
-885 -459 0
885 459 0
-886 -462 0
886 462 0
-887 -465 0
887 465 0
-888 -468 0
888 468 0
-889 -471 0
889 471 0
-890 -474 0
890 474 0
-891 -477 0
891 477 0
-892 -480 0
892 480 0
-893 -483 0
893 483 0
-894 -486 0
894 486 0
-895 -489 0
895 489 0
-896 -492 0
896 492 0
-897 -495 0
897 495 0
-898 -498 0
898 498 0
-899 -501 0
899 501 0
-900 -504 0
900 504 0
-901 -507 0
901 507 0
-902 -510 0
902 510 0
-903 -513 0
903 513 0
-904 -515 0
904 515 0
-905 -518 0
905 518 0
-906 -521 0
906 521 0
-907 -524 0
907 524 0
-908 -527 0
908 527 0
-909 -530 0
909 530 0
-910 -533 0
910 533 0
-911 -536 0
911 536 0
-912 -539 0
912 539 0
-913 -542 0
913 542 0
-914 -545 0
914 545 0
-915 -548 0
915 548 0
-916 -551 0
916 551 0
-917 -554 0
917 554 0
-918 -557 0
918 557 0
-919 -17 0
919 17 0
-920 -560 0
920 560 0
-921 -563 0
921 563 0
-922 -566 0
922 566 0
-923 -569 0
923 569 0
-924 -572 0
924 572 0
-925 -575 0
925 575 0
-926 -578 0
926 578 0
-927 -581 0
927 581 0
-928 -584 0
928 584 0
-929 -587 0
929 587 0
-930 -590 0
930 590 0
-931 -593 0
931 593 0
-932 -595 0
932 595 0
-933 -598 0
933 598 0
-934 -601 0
934 601 0
-935 -604 0
935 604 0
-936 -607 0
936 607 0
-937 -610 0
937 610 0
-938 -613 0
938 613 0
-939 -616 0
939 616 0
-940 -619 0
940 619 0
-941 -622 0
941 622 0
-942 -625 0
942 625 0
-943 -628 0
943 628 0
-944 -631 0
944 631 0
-945 -634 0
945 634 0
-946 -637 0
946 637 0
-947 -640 0
947 640 0
-948 -642 0
948 642 0
-949 -645 0
949 645 0
-950 -648 0
950 648 0
-951 -651 0
951 651 0
-952 -654 0
952 654 0
-953 -657 0
953 657 0
-954 -660 0
954 660 0
-955 -663 0
955 663 0
-956 -666 0
956 666 0
-957 -668 0
957 668 0
-958 -671 0
958 671 0
-959 -674 0
959 674 0
-960 -677 0
960 677 0
-961 -680 0
961 680 0
-962 -683 0
962 683 0
-963 -686 0
963 686 0
-964 -689 0
964 689 0
-965 -692 0
965 692 0
-966 -695 0
966 695 0
-967 -698 0
967 698 0
699 0
